
Gurobi 6.5.2 (win64) logging started 07/22/16 22:02:08


Gurobi 6.5.2 (win64) logging started 07/22/16 22:02:08

Optimize a model with 3290 rows, 328 columns and 7188 nonzeros
Coefficient statistics:
  Matrix range    [1e+00, 4e+02]
  Objective range [2e+00, 4e+02]
  Bounds range    [1e+00, 1e+00]
  RHS range       [1e+00, 2e+03]
Presolve removed 3163 rows and 26 columns
Presolve time: 0.01s
Presolved: 127 rows, 302 columns, 1410 nonzeros
Variable types: 0 continuous, 302 integer (302 binary)

Root relaxation: objective 1.862000e+03, 159 iterations, 0.00 seconds

    Nodes    |    Current Node    |     Objective Bounds      |     Work
 Expl Unexpl |  Obj  Depth IntInf | Incumbent    BestBd   Gap | It/Node Time

*    0     0               0    1862.0000000 1862.00000  0.00%     -    0s

Explored 0 nodes (159 simplex iterations) in 0.02 seconds
Thread count was 8 (of 8 available processors)

Optimal solution found (tolerance 1.00e-04)
Best objective 1.862000000000e+03, best bound 1.862000000000e+03, gap 0.0%

Wrote requested result file 'H1\instance27\\Results27SG_Sol3.lp'

